    1000
      85
     792         1
     768         1
     766         1
     764         1
     753         1
     732         1
     730         2
     729         1
     709         1
     705         1
     696         2
     670         1
     659         2
     593         1
     592         1
     578         1
     567         2
     554         1
     540         1
     539         1
     530         1
     518         1
     515         1
     513         1
     507         1
     505         1
     502         1
     501         1
     494         1
     483         1
     473         1
     463         1
     462         1
     457         1
     441         1
     430         1
     419         1
     418         1
     401         1
     370         1
     367         1
     366         1
     363         1
     357         1
     347         1
     332         1
     327         1
     320         1
     319         1
     309         1
     287         1
     286         1
     283         1
     281         1
     249         1
     248         1
     242         1
     225         1
     221         1
     215         1
     199         2
     196         1
     194         1
     191         1
     185         1
     180         1
     170         1
     167         2
     158         1
     150         1
     148         2
     130         1
     123         1
     114         1
     106         1
      96         1
      89         1
      69         1
      66         1
      62         1
      48         1
      35         1
      28         2
      25         1
      21         1
